p cnf 248 1580
-20 15 41 -3 1 0
-45 43 -1 -10 50 0
-24 -9 -33 -3 8 0
-9 -21 -46 -1 31 0
-20 50 38 -47 -24 0
-12 -44 -13 -16 -40 0
37 18 -46 -32 9 0
49 -18 -11 12 -28 0
-31 -2 -42 -30 -16 0
-35 -16 25 -20 45 0
-8 -13 2 46 -12 0
-32 45 47 -26 -44 0
-47 22 18 11 -32 0
-4 -20 -42 -6 48 0
26 49 -33 -48 -9 0
-40 -10 -29 -22 -9 0
-20 -33 -16 -43 39 0
-36 20 30 -2 38 0
39 -13 49 -18 -4 0
3 1 -16 42 39 0
-39 13 -8 -31 10 0
-6 46 -34 38 5 0
2 31 -46 42 15 0
-3 46 41 -21 -2 0
-10 12 -49 7 18 0
-21 -10 -15 34 -33 0
-41 15 1 -14 2 0
-35 -15 -41 42 -12 0
-4 41 42 5 -10 0
39 -33 7 -21 -24 0
21 -1 37 34 19 0
-9 -36 3 -37 -19 0
6 -2 14 45 43 0
25 -50 -37 7 10 0
12 40 14 47 -7 0
27 44 -30 1 -40 0
-9 -22 20 26 -49 0
37 45 8 -3 13 0
-16 -35 11 -31 -41 0
36 41 -44 -49 6 0
-23 48 4 24 8 0
-41 -29 -42 -14 -32 0
33 -2 1 -3 30 0
-33 -30 13 2 -37 0
14 -40 45 -49 13 0
-46 8 39 45 -5 0
-38 -31 -20 28 -41 0
-8 49 33 31 27 0
33 23 -20 -11 -43 0
27 -6 8 50 -43 0
-25 37 19 26 48 0
-47 -11 -29 26 -4 0
49 -46 -9 45 -50 0
42 3 2 -4 37 0
18 13 -38 -1 -45 0
18 -31 45 22 -6 0
-48 14 26 29 11 0
-34 -48 32 26 -29 0
43 46 19 -22 -37 0
-16 13 46 47 39 0
-18 -2 -20 -16 30 0
-8 6 -1 4 25 0
-38 -43 27 32 -3 0
-31 35 49 -25 4 0
-40 -26 12 18 -14 0
20 6 24 -40 -21 0
45 -3 15 -39 -46 0
37 12 -44 -13 -21 0
6 33 -37 41 -12 0
-2 34 24 37 38 0
4 34 28 12 -39 0
18 -43 -14 42 23 0
35 29 -11 -20 44 0
44 20 -17 -8 22 0
44 -8 -43 27 -28 0
41 -32 -12 -20 -39 0
16 -24 8 -12 -28 0
27 6 -5 -37 -2 0
-43 -30 -20 50 -4 0
11 -37 20 -21 -16 0
20 46 -49 14 -25 0
-48 -43 -36 -14 -27 0
1 -18 -31 41 -7 0
-50 -12 -8 34 -24 0
-17 23 -6 43 36 0
-18 -24 41 1 10 0
-23 14 50 -31 38 0
-9 30 36 -1 14 0
-43 32 44 23 -8 0
-5 31 -36 39 -14 0
-22 33 41 29 11 0
9 -2 8 -3 -24 0
32 -47 -30 -1 22 0
-24 41 44 -49 -33 0
-12 33 25 16 20 0
34 -39 43 -6 -35 0
-40 46 30 -11 -47 0
37 -4 -5 33 -32 0
-48 -13 18 41 -11 0
2 32 44 -3 23 0
27 -14 -34 -12 -33 0
3 -14 41 1 36 0
-44 -48 -25 34 -21 0
-20 7 -39 -22 -46 0
-23 -14 31 -26 39 0
7 -50 19 14 27 0
-2 19 -20 -16 24 0
14 5 -45 25 -39 0
9 -38 -43 -4 13 0
-8 -13 -41 12 -50 0
32 17 39 -28 9 0
-39 38 -48 -18 -46 0
-19 25 -2 23 50 0
14 46 -43 -44 6 0
27 22 26 -34 6 0
42 -38 32 -49 50 0
44 7 -25 -21 50 0
36 -2 -43 7 -44 0
-24 -37 -50 -3 40 0
-11 -31 -42 13 -33 0
49 4 -28 29 17 0
1 47 -13 -19 -9 0
10 -9 -15 5 47 0
37 -7 40 2 38 0
24 -46 36 18 -1 0
-17 -48 -23 9 3 0
-22 -18 46 33 -44 0
12 -1 -9 40 45 0
-36 -25 2 21 -42 0
-22 -16 -47 12 29 0
-23 44 38 -37 -21 0
-21 45 43 24 44 0
41 -23 44 -7 27 0
-38 17 48 2 -46 0
-14 34 -13 -40 -22 0
-24 14 47 23 20 0
-14 31 35 -34 -49 0
-48 -20 -44 17 -19 0
-44 -39 -18 47 -31 0
-32 40 27 -34 -36 0
25 19 -34 10 -24 0
-24 2 -16 -23 -43 0
-7 -9 -32 5 44 0
35 40 -6 3 1 0
-14 28 -22 50 3 0
-27 -1 26 -7 50 0
27 -18 24 31 -16 0
30 -28 6 -48 -15 0
-49 -43 19 -15 3 0
-22 -32 11 49 -1 0
21 -29 47 41 35 0
-48 -34 -11 7 -18 0
-38 4 -1 28 -13 0
26 19 -2 43 14 0
-25 -11 28 -29 -17 0
25 -31 -19 -10 3 0
-2 -32 -35 39 -25 0
11 -49 -18 6 -25 0
49 44 38 -31 14 0
36 50 -27 5 -19 0
-26 44 46 -12 -3 0
11 10 -35 -16 22 0
-11 -38 49 29 -7 0
48 28 3 -8 37 0
30 1 24 28 5 0
-7 31 28 42 5 0
43 -38 22 -26 13 0
3 40 12 36 -16 0
47 9 -27 -39 -44 0
16 29 9 41 13 0
14 28 4 -44 17 0
44 33 47 28 -36 0
25 -11 -45 -7 -33 0
-12 49 -6 23 -7 0
8 31 47 36 -20 0
3 -50 -26 15 -23 0
40 -9 -48 -37 -50 0
27 -36 34 37 -4 0
-48 18 40 -41 -33 0
-32 -37 18 17 34 0
20 29 -36 41 7 0
21 37 41 7 -42 0
7 42 -21 -43 -41 0
15 -5 23 22 4 0
33 -3 46 -20 47 0
22 -28 10 39 -41 0
-43 42 -39 -35 34 0
8 3 -39 23 -45 0
-35 -50 17 21 18 0
22 9 -37 39 30 0
-1 40 2 -27 9 0
25 20 -33 8 -21 0
-36 5 -29 -42 -17 0
-2 34 27 37 9 0
-25 -21 -50 1 42 0
5 40 9 -4 47 0
10 -18 41 -4 16 0
-33 45 -15 14 -6 0
-21 -13 -9 -35 19 0
-5 41 -7 28 15 0
30 -23 34 -40 44 0
-39 15 36 -16 30 0
-4 25 -48 -8 36 0
17 -16 24 22 -23 0
-20 16 -37 -40 10 0
-16 47 -20 -1 35 0
26 45 -40 -31 -25 0
-11 -13 -14 -16 41 0
-45 -39 49 38 11 0
19 -32 -12 11 -3 0
-24 -46 -27 4 -33 0
28 -35 15 12 -27 0
-29 -38 -41 50 18 0
-40 -12 5 -6 34 0
18 -24 32 30 -29 0
33 47 -20 29 9 0
-33 29 39 -50 10 0
8 5 -1 29 -7 0
31 13 1 45 -47 0
24 -35 32 -6 25 0
3 -8 42 35 -24 0
22 -15 -42 -38 13 0
16 21 -15 -48 2 0
-13 -42 46 21 47 0
-29 50 -38 27 -5 0
35 -16 17 19 -28 0
17 -26 42 -12 -29 0
27 -7 -49 36 -37 0
13 -23 -39 -5 -7 0
44 40 -23 -8 -17 0
28 2 -14 -18 42 0
30 -36 -44 9 -21 0
-50 -44 35 45 4 0
7 -40 12 3 20 0
18 23 11 20 33 0
14 11 -45 5 -28 0
36 34 4 17 30 0
-46 24 25 -30 3 0
-30 -48 -39 5 43 0
36 -24 50 -39 5 0
41 -18 -39 20 -6 0
16 -40 -29 37 36 0
13 -24 25 41 28 0
-40 -28 24 22 12 0
-38 -21 32 34 -13 0
-30 28 -14 1 21 0
-16 19 -8 -10 46 0
6 -16 17 -36 30 0
49 -22 48 -3 -44 0
26 -14 16 -50 34 0
-11 13 -31 33 -43 0
-47 1 10 -38 -43 0
15 -3 -16 -2 -11 0
-41 30 -33 29 -35 0
-7 1 25 -4 -11 0
28 -47 -23 -29 38 0
15 32 50 37 45 0
-41 37 -31 24 -45 0
-46 -8 28 16 -45 0
27 46 3 -16 -17 0
24 -14 3 6 -49 0
34 10 40 32 -44 0
-12 42 45 -4 2 0
-22 -36 28 -21 31 0
-48 43 -32 25 -12 0
4 -41 -24 -27 29 0
-16 34 -20 32 13 0
-48 -1 43 -47 -13 0
18 -48 -36 24 6 0
9 45 26 35 42 0
-35 23 -7 36 -6 0
43 22 -46 -13 -44 0
-35 -14 30 4 -32 0
26 -3 -19 29 37 0
28 5 38 37 -13 0
-19 11 -43 48 -21 0
34 -50 17 26 -20 0
-1 -46 -45 32 -30 0
12 39 32 42 4 0
-30 21 14 18 28 0
-6 -33 -16 41 35 0
37 29 -5 49 10 0
46 12 -32 -34 -4 0
-41 32 7 -14 -16 0
-21 -12 -23 -11 -19 0
-50 -23 15 1 -49 0
30 4 6 -12 24 0
11 23 -14 -19 -22 0
-11 7 -43 3 -50 0
50 33 -15 17 2 0
37 12 -43 -26 30 0
10 -36 13 -4 18 0
-18 41 -15 31 27 0
10 11 8 -47 12 0
-1 -9 13 -30 -16 0
20 7 -6 37 -32 0
-9 -8 39 30 7 0
15 9 -35 19 47 0
-4 11 -32 48 -29 0
-18 -11 -36 39 -15 0
50 13 -6 -15 -2 0
18 29 -17 41 13 0
-30 26 -42 -44 -13 0
19 48 -31 -12 36 0
-10 -47 -16 3 -48 0
48 -50 -3 -28 42 0
5 -21 -12 -23 -8 0
42 21 -30 12 18 0
-45 38 -13 11 -34 0
-11 7 -36 -4 21 0
-27 2 44 45 28 0
32 -18 33 -49 -12 0
-45 -37 -36 -16 -1 0
48 -5 -44 11 6 0
25 19 -2 -22 23 0
-39 -15 -12 1 4 0
10 32 -31 -50 -48 0
-13 19 -41 49 -40 0
12 28 -36 -6 23 0
19 24 -43 -26 21 0
-32 28 33 26 -14 0
15 4 28 -25 -42 0
-43 44 10 -14 45 0
-28 -16 41 22 1 0
-27 15 -22 1 -50 0
-33 44 -30 24 -45 0
-19 -17 37 33 42 0
33 35 -16 43 32 0
30 41 -40 23 33 0
19 -29 -7 43 36 0
39 -8 30 48 -35 0
-14 5 7 -4 41 0
44 -45 35 33 27 0
44 -35 -34 18 -14 0
-43 18 -42 27 -25 0
4 20 13 -27 15 0
48 13 46 3 -16 0
45 -42 43 -46 -4 0
22 4 24 -6 49 0
8 47 -12 25 14 0
-29 -17 -27 41 3 0
19 -30 -3 -8 17 0
6 -26 -41 -34 5 0
-25 11 -44 41 -26 0
47 -7 24 -15 -38 0
-39 -28 45 -10 -15 0
-28 -4 -3 38 -1 0
31 26 -2 41 16 0
-25 -29 16 35 -44 0
-44 -28 -2 -3 36 0
-31 23 -19 -43 1 0
10 45 -50 25 -9 0
-10 -34 -6 3 41 0
27 -3 -48 38 41 0
-41 50 -13 3 -44 0
12 -25 -16 -40 -9 0
25 47 17 -23 -20 0
-9 -47 -37 30 -36 0
17 -21 12 -32 -18 0
-42 -40 18 4 -28 0
32 22 -12 -43 -29 0
-1 -22 -44 -24 28 0
23 28 -27 -37 -42 0
-50 32 -2 -1 -8 0
-21 -2 47 20 23 0
-50 -39 -34 -5 26 0
-9 -6 31 -36 -42 0
40 44 11 -10 -4 0
-31 12 -13 -38 -1 0
37 24 33 -42 14 0
23 -27 13 -25 -4 0
-11 24 22 38 -35 0
24 -11 23 -41 -5 0
11 19 5 35 -4 0
20 -43 -24 33 -16 0
21 -31 9 3 -20 0
26 18 -45 37 17 0
37 -12 26 15 4 0
46 -10 -39 -33 28 0
11 -43 -21 24 -38 0
8 -22 5 -47 42 0
5 -7 42 24 12 0
27 -49 42 -7 26 0
4 5 -21 -10 -27 0
-31 -13 -29 -41 -11 0
-14 45 29 -33 25 0
21 -23 28 -39 40 0
32 38 45 -26 -22 0
-34 43 5 36 -41 0
19 -16 32 -1 -46 0
48 -23 33 24 4 0
-28 19 23 26 -35 0
25 23 -38 -47 36 0
32 -34 -12 38 42 0
-31 46 18 -21 12 0
17 39 8 44 -20 0
13 -23 36 27 -11 0
18 -13 16 38 27 0
-46 7 -15 9 -13 0
-7 46 20 -19 -32 0
-18 -35 4 23 7 0
39 -2 23 -33 45 0
25 42 -27 20 -32 0
2 42 -21 -4 30 0
-13 -22 -26 -35 -47 0
-39 -24 -14 -12 -45 0
28 12 3 35 34 0
16 -36 40 -6 48 0
19 -46 39 -11 -44 0
22 -40 34 -42 -3 0
9 -42 8 33 -19 0
-38 31 -3 -20 45 0
-47 32 -30 28 20 0
20 47 -38 -14 13 0
-48 -36 47 -28 -34 0
-26 20 39 -47 12 0
35 -40 -25 18 13 0
-43 20 -32 -1 -8 0
-20 -21 22 -12 -40 0
-20 -47 -36 -44 -41 0
-9 18 -43 17 28 0
19 -11 17 10 -39 0
-18 -7 27 32 -42 0
-25 -30 48 19 -22 0
23 28 -48 40 -37 0
-48 39 -24 10 7 0
-49 -13 -8 3 -48 0
-29 -5 -46 15 2 0
-17 43 19 8 4 0
-10 -31 -32 14 -29 0
-44 22 3 -11 -7 0
19 -18 9 -38 -6 0
12 44 -50 14 -8 0
-26 -15 -25 8 40 0
-15 33 8 -21 -38 0
45 -17 -39 25 -5 0
-41 -6 8 40 -48 0
25 -45 -16 32 -30 0
-48 -31 4 -42 38 0
-4 41 45 34 -32 0
-45 46 11 20 26 0
43 27 -22 50 -26 0
34 -11 9 48 -15 0
-48 5 -18 -26 -37 0
-3 -33 34 -27 -10 0
-43 -6 47 9 -45 0
-24 39 -9 26 18 0
15 -38 42 12 17 0
-30 15 29 -7 -38 0
34 45 -33 -48 50 0
-37 12 16 29 -3 0
47 -23 9 16 -5 0
-3 -37 -5 25 11 0
32 -21 -31 -8 33 0
-49 -35 39 -24 -40 0
-31 -33 48 -26 -18 0
-36 -4 50 -12 -6 0
-1 11 7 -31 -25 0
40 -6 -19 29 45 0
-24 -13 32 -12 41 0
-42 -19 -26 -20 -1 0
-20 -39 -32 -45 -50 0
-7 -48 13 50 -19 0
-41 -20 39 42 -2 0
-16 19 -40 18 10 0
-9 15 29 42 -18 0
-49 33 23 -50 -13 0
45 4 46 44 -40 0
41 40 -14 -13 -46 0
7 16 19 39 11 0
24 -7 -4 9 -28 0
-23 -26 -48 43 -10 0
3 -39 -22 -14 -13 0
19 43 -3 -39 -2 0
17 -43 -38 -36 -50 0
16 -48 -31 44 -19 0
49 23 33 13 44 0
-28 -18 23 -44 50 0
-49 1 -30 -23 9 0
-45 -29 9 -21 -11 0
-42 37 5 -50 -11 0
-18 -32 -23 -7 -27 0
-13 12 47 -31 27 0
48 35 -10 4 8 0
-5 -36 39 -8 3 0
20 -16 4 -36 -31 0
-7 -28 2 -49 -42 0
22 13 -5 9 -31 0
-43 -7 -34 11 2 0
11 -46 34 17 -19 0
-32 -39 -12 5 9 0
18 20 29 -44 -34 0
18 -2 -30 -37 12 0
29 15 30 -3 46 0
19 -9 -37 -7 1 0
-43 2 3 31 48 0
-5 47 13 11 39 0
7 8 -33 -46 24 0
1 47 -11 40 30 0
-11 -32 -24 -22 45 0
-23 32 -31 21 49 0
-25 -8 -21 -49 -12 0
18 17 33 -2 23 0
-35 22 -28 -31 16 0
5 -20 -50 -43 -44 0
26 9 -16 6 -44 0
-47 39 -27 -35 30 0
-44 50 -18 39 -22 0
19 47 15 26 -21 0
-35 27 18 11 22 0
15 -34 12 1 -5 0
-1 -50 36 44 -9 0
16 -33 20 -23 -14 0
28 26 44 10 31 0
35 28 23 40 22 0
-47 -2 -35 -34 11 0
26 34 -41 12 9 0
46 -43 -38 -49 7 0
50 -37 35 -21 -19 0
10 31 36 8 40 0
-1 50 33 22 -5 0
49 47 20 -15 -22 0
49 26 -31 45 50 0
-30 -12 -40 -24 35 0
-6 -29 5 7 27 0
-18 -21 -45 22 38 0
-23 25 -29 -30 -34 0
-13 6 9 -48 -47 0
-18 47 15 5 -40 0
30 -31 38 15 3 0
-27 41 46 -32 -49 0
38 25 -36 -10 40 0
-38 25 31 28 -13 0
50 -20 -18 33 -30 0
22 26 -11 23 -36 0
16 -25 -12 3 50 0
-32 -9 -46 -25 -8 0
-42 -32 37 -21 15 0
21 29 -32 -39 14 0
-25 -18 -27 7 -10 0
19 35 -46 -44 37 0
9 20 -6 -43 46 0
-15 -23 11 -47 16 0
-29 6 15 -4 22 0
24 -40 -23 36 47 0
39 -3 6 -34 28 0
-15 -38 -7 32 -10 0
-9 28 -44 -22 16 0
44 32 -3 12 14 0
20 49 38 -42 26 0
-47 38 -12 48 32 0
-30 15 19 36 28 0
8 -20 7 -39 -21 0
-42 2 -22 25 45 0
-35 39 -17 20 12 0
13 50 48 3 5 0
-34 18 47 -38 48 0
18 31 -28 -8 38 0
34 44 -43 -15 -12 0
-47 -21 46 -4 36 0
-18 -42 27 5 -14 0
20 -32 -48 -42 27 0
-15 30 1 3 35 0
46 33 31 -11 -22 0
10 22 36 -18 -9 0
25 -16 -44 -24 19 0
-28 -22 36 -20 -42 0
-10 -21 -31 -45 -22 0
26 -47 -4 50 -14 0
-28 -18 -7 -38 -34 0
11 15 -5 40 -30 0
11 10 -21 25 -17 0
48 40 -44 36 -1 0
-43 -14 -13 -25 -18 0
49 48 20 -1 -19 0
-49 -15 18 -17 41 0
-40 -4 21 12 -50 0
-25 -15 48 -50 -41 0
-27 -8 17 13 -15 0
19 -41 8 46 -10 0
1 8 30 -4 -31 0
38 -10 23 -44 2 0
-37 -30 36 -18 17 0
-31 -29 -7 -2 -30 0
-9 -43 -46 23 -32 0
10 50 3 21 -2 0
-16 -5 -6 -40 10 0
37 -13 2 -15 -33 0
17 19 -3 -7 48 0
15 -21 43 -26 -33 0
41 -14 -22 -12 -8 0
2 43 50 14 -13 0
20 27 23 -42 12 0
-6 -10 -7 -25 44 0
49 -10 3 38 43 0
12 3 38 10 -50 0
17 29 -7 -34 30 0
-27 -29 48 19 -28 0
-44 -20 29 -30 41 0
16 38 7 15 42 0
-14 -27 -35 -38 -21 0
32 42 45 -3 -10 0
46 37 17 4 48 0
-5 12 -16 -37 28 0
-31 34 -45 22 -24 0
-23 -8 48 -44 -46 0
46 -8 48 42 -50 0
-12 26 -10 50 -36 0
46 -39 -32 -50 40 0
31 40 10 -49 -16 0
35 -38 -24 43 -5 0
-10 17 7 -39 -45 0
-25 -44 24 -39 -13 0
35 5 -43 -40 -26 0
-40 18 -3 35 19 0
-8 -25 -2 49 13 0
-49 18 31 -42 -25 0
-14 15 -3 43 47 0
4 -7 -30 21 -45 0
49 -29 -48 -27 11 0
30 5 6 -23 35 0
-11 -40 42 39 5 0
20 14 -27 -37 -3 0
-1 -3 42 -20 43 0
50 28 -34 27 -25 0
-32 -19 42 43 -37 0
16 -15 20 -45 35 0
-35 -50 -8 32 49 0
-44 50 -42 3 25 0
32 -12 21 -47 38 0
27 -50 -18 -9 49 0
14 8 -33 -47 41 0
25 -43 11 35 28 0
4 46 39 8 -17 0
49 17 -30 -34 38 0
-50 -19 13 37 -11 0
-31 49 -12 18 -23 0
-6 -31 22 17 -37 0
-23 -44 49 9 -34 0
29 -9 20 -14 42 0
-13 -9 -39 34 49 0
12 7 -24 18 14 0
-29 -36 33 12 14 0
-33 9 -28 -26 14 0
33 31 48 3 19 0
9 -45 1 -13 -18 0
33 39 -41 -20 44 0
-10 43 9 4 -42 0
48 17 -14 -21 29 0
-4 -32 -5 6 28 0
13 -25 -31 50 -49 0
-3 -42 -50 49 45 0
-2 -39 22 -16 -5 0
-37 -10 -1 3 14 0
-9 -45 -7 -14 -6 0
20 23 -39 -37 1 0
-9 -15 20 49 -41 0
45 14 -44 -28 19 0
43 -30 -12 16 -41 0
-39 -9 15 32 -49 0
12 43 22 -7 -35 0
32 35 -41 25 -23 0
-10 -18 5 40 36 0
-46 -33 25 17 40 0
16 36 -32 5 35 0
30 47 -36 15 34 0
-24 -20 -47 41 12 0
50 -17 -5 -9 12 0
-22 42 6 -7 -1 0
38 15 42 28 -10 0
15 -31 5 37 44 0
-43 -46 -1 4 -35 0
8 -28 3 6 -4 0
-14 -7 -47 44 -11 0
-18 -3 -46 5 -23 0
-18 -13 -47 -43 -2 0
-33 -7 -46 -49 26 0
-9 -32 29 -8 28 0
15 -24 -36 4 -44 0
-23 -24 -9 16 -44 0
-19 -2 21 -42 -32 0
-2 10 -49 -5 37 0
10 41 -37 -42 -12 0
18 7 12 50 43 0
49 37 -39 34 -33 0
-11 -22 -48 3 23 0
-48 -12 31 -42 43 0
8 12 -43 -27 25 0
6 21 15 14 26 0
-14 28 -41 32 -5 0
8 -45 6 -36 -11 0
32 -3 -31 12 -14 0
48 11 -50 -29 3 0
-48 5 -12 -8 -43 0
-23 30 -32 -28 -36 0
-30 -10 13 -17 4 0
10 32 -27 -31 30 0
-21 -29 13 -31 -20 0
-4 14 -17 22 -16 0
28 -48 12 36 -34 0
-35 -29 -50 -45 34 0
16 -37 -41 50 3 0
-18 -10 -39 8 42 0
28 3 -6 23 42 0
49 11 36 -10 -42 0
32 -7 38 23 -10 0
-11 47 -38 34 -43 0
-26 -42 -40 -31 -34 0
11 41 -33 3 30 0
-5 50 -7 35 -23 0
42 -31 -10 1 2 0
4 23 39 34 48 0
-17 49 -32 12 25 0
29 10 4 27 46 0
18 12 27 33 -13 0
2 7 22 -33 8 0
-19 47 14 34 15 0
-20 -45 24 -22 -12 0
50 32 -37 3 -25 0
-4 -37 -46 12 34 0
12 41 26 -7 5 0
-45 6 25 -22 21 0
-5 2 -34 32 -18 0
1 -23 46 4 24 0
28 46 -45 17 -31 0
-13 -26 41 20 18 0
50 -7 21 3 -24 0
5 27 32 -21 16 0
-15 40 -9 44 3 0
-22 34 20 -25 -8 0
-3 8 -10 -32 -15 0
-49 -11 8 -34 -48 0
21 22 26 24 6 0
46 43 30 18 50 0
-42 -31 19 50 40 0
29 -44 23 -22 39 0
-25 -44 -23 -11 -31 0
44 49 -22 14 -19 0
-48 -2 -36 5 -33 0
-6 -34 3 -8 -43 0
16 1 -47 -3 13 0
47 36 -40 20 25 0
15 -30 -31 -22 -49 0
-3 -49 -15 -22 10 0
3 31 39 26 48 0
15 -5 36 16 44 0
50 -23 -39 -48 49 0
-23 6 -31 49 -27 0
-23 -10 -7 -44 -34 0
3 -26 -12 50 -42 0
-2 3 51 0
2 3 -51 0
-2 -3 -51 0
2 -3 51 0
-7 -8 52 0
7 -8 -52 0
-7 8 -52 0
7 8 52 0
-11 16 53 0
11 16 -53 0
-11 -16 -53 0
11 -16 53 0
-17 18 54 0
17 18 -54 0
-17 -18 -54 0
17 -18 54 0
-19 -20 55 0
19 -20 -55 0
-19 20 -55 0
19 20 55 0
-22 23 56 0
22 23 -56 0
-22 -23 -56 0
22 -23 56 0
24 25 57 0
-24 25 -57 0
24 -25 -57 0
-24 -25 57 0
-28 33 58 0
28 33 -58 0
-28 -33 -58 0
28 -33 58 0
-35 38 59 0
35 38 -59 0
-35 -38 -59 0
35 -38 59 0
39 -40 60 0
-39 -40 -60 0
39 40 -60 0
-39 40 60 0
44 46 61 0
-44 46 -61 0
44 -46 -61 0
-44 -46 61 0
50 -51 62 0
-50 -51 -62 0
50 51 -62 0
-50 51 62 0
52 -53 63 0
-52 -53 -63 0
52 53 -63 0
-52 53 63 0
54 -55 64 0
-54 -55 -64 0
54 55 -64 0
-54 55 64 0
56 -57 65 0
-56 -57 -65 0
56 57 -65 0
-56 57 65 0
58 -59 66 0
-58 -59 -66 0
58 59 -66 0
-58 59 66 0
60 -61 67 0
-60 -61 -67 0
60 61 -67 0
-60 61 67 0
62 -63 68 0
-62 -63 -68 0
62 63 -68 0
-62 63 68 0
64 -65 69 0
-64 -65 -69 0
64 65 -69 0
-64 65 69 0
66 -67 70 0
-66 -67 -70 0
66 67 -70 0
-66 67 70 0
-68 -69 70 0
68 -69 -70 0
-68 69 -70 0
68 69 70 0
2 3 71 0
-2 3 -71 0
2 -3 -71 0
-2 -3 71 0
-4 5 72 0
4 5 -72 0
-4 -5 -72 0
4 -5 72 0
6 13 73 0
-6 13 -73 0
6 -13 -73 0
-6 -13 73 0
-16 19 74 0
16 19 -74 0
-16 -19 -74 0
16 -19 74 0
20 23 75 0
-20 23 -75 0
20 -23 -75 0
-20 -23 75 0
25 26 76 0
-25 26 -76 0
25 -26 -76 0
-25 -26 76 0
27 -30 77 0
-27 -30 -77 0
27 30 -77 0
-27 30 77 0
-31 -33 78 0
31 -33 -78 0
-31 33 -78 0
31 33 78 0
-40 41 79 0
40 41 -79 0
-40 -41 -79 0
40 -41 79 0
-42 44 80 0
42 44 -80 0
-42 -44 -80 0
42 -44 80 0
45 -48 81 0
-45 -48 -81 0
45 48 -81 0
-45 48 81 0
70 -71 82 0
-70 -71 -82 0
70 71 -82 0
-70 71 82 0
72 -73 83 0
-72 -73 -83 0
72 73 -83 0
-72 73 83 0
74 -75 84 0
-74 -75 -84 0
74 75 -84 0
-74 75 84 0
76 -77 85 0
-76 -77 -85 0
76 77 -85 0
-76 77 85 0
78 -79 86 0
-78 -79 -86 0
78 79 -86 0
-78 79 86 0
80 -81 87 0
-80 -81 -87 0
80 81 -87 0
-80 81 87 0
82 -83 88 0
-82 -83 -88 0
82 83 -88 0
-82 83 88 0
84 -85 89 0
-84 -85 -89 0
84 85 -89 0
-84 85 89 0
86 -87 90 0
-86 -87 -90 0
86 87 -90 0
-86 87 90 0
-88 -89 90 0
88 -89 -90 0
-88 89 -90 0
88 89 90 0
5 7 91 0
-5 7 -91 0
5 -7 -91 0
-5 -7 91 0
9 10 92 0
-9 10 -92 0
9 -10 -92 0
-9 -10 92 0
-12 -13 93 0
12 -13 -93 0
-12 13 -93 0
12 13 93 0
-15 -16 94 0
15 -16 -94 0
-15 16 -94 0
15 16 94 0
-17 18 95 0
17 18 -95 0
-17 -18 -95 0
17 -18 95 0
22 -23 96 0
-22 -23 -96 0
22 23 -96 0
-22 23 96 0
-24 -26 97 0
24 -26 -97 0
-24 26 -97 0
24 26 97 0
27 29 98 0
-27 29 -98 0
27 -29 -98 0
-27 -29 98 0
33 -36 99 0
-33 -36 -99 0
33 36 -99 0
-33 36 99 0
37 -39 100 0
-37 -39 -100 0
37 39 -100 0
-37 39 100 0
46 -47 101 0
-46 -47 -101 0
46 47 -101 0
-46 47 101 0
49 -50 102 0
-49 -50 -102 0
49 50 -102 0
-49 50 102 0
91 -92 103 0
-91 -92 -103 0
91 92 -103 0
-91 92 103 0
93 -94 104 0
-93 -94 -104 0
93 94 -104 0
-93 94 104 0
95 -96 105 0
-95 -96 -105 0
95 96 -105 0
-95 96 105 0
97 -98 106 0
-97 -98 -106 0
97 98 -106 0
-97 98 106 0
99 -100 107 0
-99 -100 -107 0
99 100 -107 0
-99 100 107 0
101 -102 108 0
-101 -102 -108 0
101 102 -108 0
-101 102 108 0
103 -104 109 0
-103 -104 -109 0
103 104 -109 0
-103 104 109 0
105 -106 110 0
-105 -106 -110 0
105 106 -110 0
-105 106 110 0
107 -108 111 0
-107 -108 -111 0
107 108 -111 0
-107 108 111 0
-109 -110 111 0
109 -110 -111 0
-109 110 -111 0
109 110 111 0
-1 5 112 0
1 5 -112 0
-1 -5 -112 0
1 -5 112 0
8 10 113 0
-8 10 -113 0
8 -10 -113 0
-8 -10 113 0
16 20 114 0
-16 20 -114 0
16 -20 -114 0
-16 -20 114 0
-23 26 115 0
23 26 -115 0
-23 -26 -115 0
23 -26 115 0
-30 -31 116 0
30 -31 -116 0
-30 31 -116 0
30 31 116 0
33 -34 117 0
-33 -34 -117 0
33 34 -117 0
-33 34 117 0
-38 40 118 0
38 40 -118 0
-38 -40 -118 0
38 -40 118 0
41 -42 119 0
-41 -42 -119 0
41 42 -119 0
-41 42 119 0
43 -44 120 0
-43 -44 -120 0
43 44 -120 0
-43 44 120 0
-48 -49 121 0
48 -49 -121 0
-48 49 -121 0
48 49 121 0
112 -113 122 0
-112 -113 -122 0
112 113 -122 0
-112 113 122 0
114 -115 123 0
-114 -115 -123 0
114 115 -123 0
-114 115 123 0
116 -117 124 0
-116 -117 -124 0
116 117 -124 0
-116 117 124 0
118 -119 125 0
-118 -119 -125 0
118 119 -125 0
-118 119 125 0
120 -121 126 0
-120 -121 -126 0
120 121 -126 0
-120 121 126 0
122 -123 127 0
-122 -123 -127 0
122 123 -127 0
-122 123 127 0
124 -125 128 0
-124 -125 -128 0
124 125 -128 0
-124 125 128 0
-126 -127 128 0
126 -127 -128 0
-126 127 -128 0
126 127 128 0
-1 -4 129 0
1 -4 -129 0
-1 4 -129 0
1 4 129 0
-5 -8 130 0
5 -8 -130 0
-5 8 -130 0
5 8 130 0
11 -13 131 0
-11 -13 -131 0
11 13 -131 0
-11 13 131 0
18 19 132 0
-18 19 -132 0
18 -19 -132 0
-18 -19 132 0
21 23 133 0
-21 23 -133 0
21 -23 -133 0
-21 -23 133 0
-31 -32 134 0
31 -32 -134 0
-31 32 -134 0
31 32 134 0
33 -34 135 0
-33 -34 -135 0
33 34 -135 0
-33 34 135 0
36 -37 136 0
-36 -37 -136 0
36 37 -136 0
-36 37 136 0
40 42 137 0
-40 42 -137 0
40 -42 -137 0
-40 -42 137 0
44 -45 138 0
-44 -45 -138 0
44 45 -138 0
-44 45 138 0
46 48 139 0
-46 48 -139 0
46 -48 -139 0
-46 -48 139 0
128 -129 140 0
-128 -129 -140 0
128 129 -140 0
-128 129 140 0
130 -131 141 0
-130 -131 -141 0
130 131 -141 0
-130 131 141 0
132 -133 142 0
-132 -133 -142 0
132 133 -142 0
-132 133 142 0
134 -135 143 0
-134 -135 -143 0
134 135 -143 0
-134 135 143 0
136 -137 144 0
-136 -137 -144 0
136 137 -144 0
-136 137 144 0
138 -139 145 0
-138 -139 -145 0
138 139 -145 0
-138 139 145 0
140 -141 146 0
-140 -141 -146 0
140 141 -146 0
-140 141 146 0
142 -143 147 0
-142 -143 -147 0
142 143 -147 0
-142 143 147 0
144 -145 148 0
-144 -145 -148 0
144 145 -148 0
-144 145 148 0
-146 -147 148 0
146 -147 -148 0
-146 147 -148 0
146 147 148 0
2 -5 149 0
-2 -5 -149 0
2 5 -149 0
-2 5 149 0
-6 -9 150 0
6 -9 -150 0
-6 9 -150 0
6 9 150 0
10 -12 151 0
-10 -12 -151 0
10 12 -151 0
-10 12 151 0
-13 14 152 0
13 14 -152 0
-13 -14 -152 0
13 -14 152 0
-16 -23 153 0
16 -23 -153 0
-16 23 -153 0
16 23 153 0
-25 27 154 0
25 27 -154 0
-25 -27 -154 0
25 -27 154 0
-30 -31 155 0
30 -31 -155 0
-30 31 -155 0
30 31 155 0
34 36 156 0
-34 36 -156 0
34 -36 -156 0
-34 -36 156 0
38 39 157 0
-38 39 -157 0
38 -39 -157 0
-38 -39 157 0
-40 -42 158 0
40 -42 -158 0
-40 42 -158 0
40 42 158 0
-45 47 159 0
45 47 -159 0
-45 -47 -159 0
45 -47 159 0
48 -50 160 0
-48 -50 -160 0
48 50 -160 0
-48 50 160 0
149 -150 161 0
-149 -150 -161 0
149 150 -161 0
-149 150 161 0
151 -152 162 0
-151 -152 -162 0
151 152 -162 0
-151 152 162 0
153 -154 163 0
-153 -154 -163 0
153 154 -163 0
-153 154 163 0
155 -156 164 0
-155 -156 -164 0
155 156 -164 0
-155 156 164 0
157 -158 165 0
-157 -158 -165 0
157 158 -165 0
-157 158 165 0
159 -160 166 0
-159 -160 -166 0
159 160 -166 0
-159 160 166 0
161 -162 167 0
-161 -162 -167 0
161 162 -167 0
-161 162 167 0
163 -164 168 0
-163 -164 -168 0
163 164 -168 0
-163 164 168 0
165 -166 169 0
-165 -166 -169 0
165 166 -169 0
-165 166 169 0
-167 -168 169 0
167 -168 -169 0
-167 168 -169 0
167 168 169 0
4 -6 170 0
-4 -6 -170 0
4 6 -170 0
-4 6 170 0
7 -12 171 0
-7 -12 -171 0
7 12 -171 0
-7 12 171 0
-14 15 172 0
14 15 -172 0
-14 -15 -172 0
14 -15 172 0
19 -25 173 0
-19 -25 -173 0
19 25 -173 0
-19 25 173 0
-26 28 174 0
26 28 -174 0
-26 -28 -174 0
26 -28 174 0
29 32 175 0
-29 32 -175 0
29 -32 -175 0
-29 -32 175 0
-35 -37 176 0
35 -37 -176 0
-35 37 -176 0
35 37 176 0
-38 40 177 0
38 40 -177 0
-38 -40 -177 0
38 -40 177 0
45 -47 178 0
-45 -47 -178 0
45 47 -178 0
-45 47 178 0
169 -170 179 0
-169 -170 -179 0
169 170 -179 0
-169 170 179 0
171 -172 180 0
-171 -172 -180 0
171 172 -180 0
-171 172 180 0
173 -174 181 0
-173 -174 -181 0
173 174 -181 0
-173 174 181 0
175 -176 182 0
-175 -176 -182 0
175 176 -182 0
-175 176 182 0
177 -178 183 0
-177 -178 -183 0
177 178 -183 0
-177 178 183 0
179 -180 184 0
-179 -180 -184 0
179 180 -184 0
-179 180 184 0
181 -182 185 0
-181 -182 -185 0
181 182 -185 0
-181 182 185 0
-183 -184 185 0
183 -184 -185 0
-183 184 -185 0
183 184 185 0
-2 6 186 0
2 6 -186 0
-2 -6 -186 0
2 -6 186 0
8 11 187 0
-8 11 -187 0
8 -11 -187 0
-8 -11 187 0
13 -14 188 0
-13 -14 -188 0
13 14 -188 0
-13 14 188 0
-15 19 189 0
15 19 -189 0
-15 -19 -189 0
15 -19 189 0
20 -22 190 0
-20 -22 -190 0
20 22 -190 0
-20 22 190 0
26 -29 191 0
-26 -29 -191 0
26 29 -191 0
-26 29 191 0
30 -31 192 0
-30 -31 -192 0
30 31 -192 0
-30 31 192 0
32 -33 193 0
-32 -33 -193 0
32 33 -193 0
-32 33 193 0
34 -37 194 0
-34 -37 -194 0
34 37 -194 0
-34 37 194 0
-40 -41 195 0
40 -41 -195 0
-40 41 -195 0
40 41 195 0
46 -47 196 0
-46 -47 -196 0
46 47 -196 0
-46 47 196 0
186 -187 197 0
-186 -187 -197 0
186 187 -197 0
-186 187 197 0
188 -189 198 0
-188 -189 -198 0
188 189 -198 0
-188 189 198 0
190 -191 199 0
-190 -191 -199 0
190 191 -199 0
-190 191 199 0
192 -193 200 0
-192 -193 -200 0
192 193 -200 0
-192 193 200 0
194 -195 201 0
-194 -195 -201 0
194 195 -201 0
-194 195 201 0
196 -197 202 0
-196 -197 -202 0
196 197 -202 0
-196 197 202 0
198 -199 203 0
-198 -199 -203 0
198 199 -203 0
-198 199 203 0
200 -201 204 0
-200 -201 -204 0
200 201 -204 0
-200 201 204 0
-202 -203 204 0
202 -203 -204 0
-202 203 -204 0
202 203 204 0
1 -2 205 0
-1 -2 -205 0
1 2 -205 0
-1 2 205 0
-3 4 206 0
3 4 -206 0
-3 -4 -206 0
3 -4 206 0
-7 9 207 0
7 9 -207 0
-7 -9 -207 0
7 -9 207 0
11 -13 208 0
-11 -13 -208 0
11 13 -208 0
-11 13 208 0
14 15 209 0
-14 15 -209 0
14 -15 -209 0
-14 -15 209 0
16 -18 210 0
-16 -18 -210 0
16 18 -210 0
-16 18 210 0
20 22 211 0
-20 22 -211 0
20 -22 -211 0
-20 -22 211 0
-24 -27 212 0
24 -27 -212 0
-24 27 -212 0
24 27 212 0
-28 -30 213 0
28 -30 -213 0
-28 30 -213 0
28 30 213 0
31 -33 214 0
-31 -33 -214 0
31 33 -214 0
-31 33 214 0
-34 35 215 0
34 35 -215 0
-34 -35 -215 0
34 -35 215 0
-36 -37 216 0
36 -37 -216 0
-36 37 -216 0
36 37 216 0
-38 -46 217 0
38 -46 -217 0
-38 46 -217 0
38 46 217 0
48 49 218 0
-48 49 -218 0
48 -49 -218 0
-48 -49 218 0
205 -206 219 0
-205 -206 -219 0
205 206 -219 0
-205 206 219 0
207 -208 220 0
-207 -208 -220 0
207 208 -220 0
-207 208 220 0
209 -210 221 0
-209 -210 -221 0
209 210 -221 0
-209 210 221 0
211 -212 222 0
-211 -212 -222 0
211 212 -222 0
-211 212 222 0
213 -214 223 0
-213 -214 -223 0
213 214 -223 0
-213 214 223 0
215 -216 224 0
-215 -216 -224 0
215 216 -224 0
-215 216 224 0
217 -218 225 0
-217 -218 -225 0
217 218 -225 0
-217 218 225 0
219 -220 226 0
-219 -220 -226 0
219 220 -226 0
-219 220 226 0
221 -222 227 0
-221 -222 -227 0
221 222 -227 0
-221 222 227 0
223 -224 228 0
-223 -224 -228 0
223 224 -228 0
-223 224 228 0
225 -226 229 0
-225 -226 -229 0
225 226 -229 0
-225 226 229 0
227 -228 230 0
-227 -228 -230 0
227 228 -230 0
-227 228 230 0
229 230 0
-229 -230 0
-1 -2 231 0
1 -2 -231 0
-1 2 -231 0
1 2 231 0
-3 4 232 0
3 4 -232 0
-3 -4 -232 0
3 -4 232 0
5 -7 233 0
-5 -7 -233 0
5 7 -233 0
-5 7 233 0
9 -14 234 0
-9 -14 -234 0
9 14 -234 0
-9 14 234 0
16 17 235 0
-16 17 -235 0
16 -17 -235 0
-16 -17 235 0
-18 -19 236 0
18 -19 -236 0
-18 19 -236 0
18 19 236 0
21 23 237 0
-21 23 -237 0
21 -23 -237 0
-21 -23 237 0
-26 -34 238 0
26 -34 -238 0
-26 34 -238 0
26 34 238 0
35 42 239 0
-35 42 -239 0
35 -42 -239 0
-35 -42 239 0
-48 -49 240 0
48 -49 -240 0
-48 49 -240 0
48 49 240 0
230 -231 241 0
-230 -231 -241 0
230 231 -241 0
-230 231 241 0
232 -233 242 0
-232 -233 -242 0
232 233 -242 0
-232 233 242 0
234 -235 243 0
-234 -235 -243 0
234 235 -243 0
-234 235 243 0
236 -237 244 0
-236 -237 -244 0
236 237 -244 0
-236 237 244 0
238 -239 245 0
-238 -239 -245 0
238 239 -245 0
-238 239 245 0
240 -241 246 0
-240 -241 -246 0
240 241 -246 0
-240 241 246 0
242 -243 247 0
-242 -243 -247 0
242 243 -247 0
-242 243 247 0
244 -245 248 0
-244 -245 -248 0
244 245 -248 0
-244 245 248 0
-246 -247 248 0
246 -247 -248 0
-246 247 -248 0
246 247 248 0
